(set-logic QF_S)
(declare-fun var0 () String)
(declare-fun var1 () String)
(declare-fun var2 () String)
(declare-fun var3 () Int)
(declare-fun var4 () Int)
(declare-fun var5 () Int)
(declare-fun var6 () Bool)
(declare-fun var7 () Bool)
(declare-fun var8 () Bool)
(assert (> (str.len var1) (str.indexof var0 var2 var3)))
(assert (> var4 var3))
(assert (str.contains (str.substr (str.replace var0 var0 ">@/aW*+?;V") (str.len var2) (str.len var0)) (str.substr var2 var3 var4)))
(assert (> (str.indexof var1 "uc;AMPB->w" var5) (str.indexof var0 var2 var5)))
(check-sat)